p cnf 12 34
-2 -8 9 -11 0
-2 -8 -9 10 0
-2 8 9 10 0
-2 8 -9 -10 0
-2 -8 -10 11 0
2 8 -9 10 0
2 -8 -9 -10 -11 0
2 8 9 -10 0
2 -8 9 10 11 0
-3 9 4 0
-3 -9 -4 0
3 -9 4 0
3 9 -4 0
-4 -10 -11 0
-4 10 11 0
4 10 -11 0
4 -10 11 0
5 9 -10 0
5 -9 10 0
-5 -9 -10 0
-5 9 10 0
-6 8 7 0
-6 -8 -7 0
6 -8 7 0
6 8 -7 0
-7 9 10 0
7 -9 0
7 -10 0
-12 0
-2 0
-3 0
-10 0
-5 0
-6 0

